qbf_easy_train/easy_5022_SAT.qdimacs
p cnf 20 47
a 18 5 14 0
e 1 2 3 4 6 7 8 9 10 11 12 13 15 16 17 19 20 0
-1 -2 -3 0
1 2 -3 0
-1 2 3 0
1 -2 3 0
-3 4 -5 0
3 -4 -5 0
-3 -4 5 0
3 4 5 0
7 -8 0
-7 -8 0
-9 6 0
-9 -8 0
-6 8 9 0
-11 3 -12 0
11 -3 -12 0
-11 -3 12 0
11 3 12 0
10 12 -13 0
-10 -12 -13 0
10 -12 13 0
-10 12 13 0
-9 13 -14 0
9 -13 -14 0
-9 -13 14 0
9 13 14 0
-15 5 0
-15 14 0
-5 -14 15 0
16 -10 0
16 2 0
10 -2 -16 0
18 17 0
18 -1 0
-17 1 -18 0
-16 -18 -19 0
16 18 -19 0
-16 18 19 0
16 -18 19 0
-15 -19 -20 0
15 19 -20 0
-15 19 20 0
15 -19 20 0
18 -3 -13 2 -16 -12 0
5 3 2 14 0
-2 1 17 -13 19 10 8 0
10 16 3 -13 14 8 0
20 0
