sat_easy_train/easy_5022_SAT.dimacs
p cnf 113 368
4 2 0
4 -3 0
-2 3 -4 0
5 1 0
5 4 0
-1 -4 -5 0
-5 6 0
5 6 0
-8 -1 0
-8 -7 0
1 7 8 0
7 8 -9 0
-7 -8 -9 0
7 -8 9 0
-7 8 9 0
-12 10 0
-12 -11 0
-10 11 12 0
-13 -9 0
-13 12 0
9 -12 13 0
-14 -10 -15 0
14 10 -15 0
-14 10 15 0
14 -10 15 0
-15 11 -16 0
15 -11 -16 0
-15 -11 16 0
15 11 16 0
-16 -8 -17 0
16 8 -17 0
-16 8 17 0
16 -8 17 0
-8 -18 -19 0
8 18 -19 0
-8 18 19 0
8 -18 19 0
-20 21 -22 0
20 -21 -22 0
-20 -21 22 0
20 21 22 0
23 -19 0
23 -22 0
19 22 -23 0
-24 -17 0
-24 -23 0
17 23 24 0
25 -13 0
25 -24 0
13 24 -25 0
27 -26 0
27 -26 0
26 -27 0
15 4 -28 0
-15 -4 -28 0
15 -4 28 0
-15 4 28 0
29 27 0
29 -28 0
-27 28 -29 0
31 30 0
31 -1 0
-30 1 -31 0
32 -19 0
32 -31 0
19 31 -32 0
-33 -29 0
-33 -32 0
29 32 33 0
34 -10 0
34 -8 0
10 8 -34 0
35 -31 -36 0
-35 31 -36 0
35 31 36 0
-35 -31 36 0
34 36 -37 0
-34 -36 -37 0
34 -36 37 0
-34 36 37 0
33 37 -38 0
-33 -37 -38 0
33 -37 38 0
-33 37 38 0
39 25 0
39 -38 0
-25 38 -39 0
41 -1 0
41 40 0
1 -40 -41 0
-42 41 0
-42 -2 0
-41 2 42 0
-43 39 0
-43 42 0
-39 -42 43 0
-44 6 0
-44 43 0
-6 -43 44 0
10 1 -45 0
-10 -1 -45 0
10 -1 45 0
-10 1 45 0
-41 36 -46 0
41 -36 -46 0
-41 -36 46 0
41 36 46 0
45 46 -47 0
-45 -46 -47 0
45 -46 47 0
-45 46 47 0
-48 -47 0
-48 -13 0
47 13 48 0
49 20 0
49 31 0
-20 -31 -49 0
50 48 0
50 -49 0
-48 49 -50 0
-7 -21 -51 0
7 21 -51 0
-7 21 51 0
7 -21 51 0
52 -18 0
52 -51 0
18 51 -52 0
-53 -52 0
-53 20 0
52 -20 53 0
-26 54 -55 0
26 -54 -55 0
-26 -54 55 0
26 54 55 0
-56 -53 0
-56 -55 0
53 55 56 0
-53 -24 -57 0
53 24 -57 0
-53 24 57 0
53 -24 57 0
58 56 0
58 -57 0
-56 57 -58 0
-50 58 -59 0
50 -58 -59 0
-50 -58 59 0
50 58 59 0
60 28 0
60 -5 0
-28 5 -60 0
61 -35 0
61 -36 0
35 36 -61 0
-62 -61 0
-62 14 0
61 -14 62 0
63 -52 0
63 62 0
52 -62 -63 0
64 -60 0
64 -63 0
60 63 -64 0
65 59 0
65 64 0
-59 -64 -65 0
66 -14 0
66 -54 0
14 54 -66 0
-65 66 -67 0
65 -66 -67 0
-65 -66 67 0
65 66 67 0
-68 61 0
-68 61 0
-61 68 0
-69 68 0
-69 7 0
-68 -7 69 0
-13 -17 -70 0
13 17 -70 0
-13 17 70 0
13 -17 70 0
71 54 0
71 -70 0
-54 70 -71 0
72 69 0
72 71 0
-69 -71 -72 0
-73 67 0
-73 72 0
-67 -72 73 0
-15 -4 -74 0
15 4 -74 0
-15 4 74 0
15 -4 74 0
-75 -15 0
-75 -74 0
15 74 75 0
31 -40 -76 0
-31 40 -76 0
31 40 76 0
-31 -40 76 0
-77 -75 0
-77 76 0
75 -76 77 0
-73 77 -78 0
73 -77 -78 0
-73 -77 78 0
73 77 78 0
79 -44 0
79 78 0
44 -78 -79 0
80 8 0
80 21 0
-8 -21 -80 0
-80 -10 -81 0
80 10 -81 0
-80 10 81 0
80 -10 81 0
-3 -82 0
3 -82 0
84 -30 0
84 9 0
30 -9 -84 0
-85 -83 0
-85 84 0
83 -84 85 0
86 -31 0
86 -30 0
31 30 -86 0
-87 -28 0
-87 86 0
28 -86 87 0
-88 -87 0
-88 -13 0
87 13 88 0
19 88 -89 0
-19 -88 -89 0
19 -88 89 0
-19 88 89 0
-90 54 0
-90 60 0
-54 -60 90 0
91 -89 0
91 -90 0
89 90 -91 0
92 -85 0
92 -91 0
85 91 -92 0
-82 92 -93 0
82 -92 -93 0
-82 -92 93 0
82 92 93 0
8 94 0
-8 94 0
-95 -93 0
-95 94 0
93 -94 95 0
96 5 0
96 -40 0
-5 40 -96 0
97 53 0
97 -74 0
-53 74 -97 0
98 -96 0
98 97 0
96 -97 -98 0
-95 98 -99 0
95 -98 -99 0
-95 -98 99 0
95 98 99 0
-41 45 -100 0
41 -45 -100 0
-41 -45 100 0
41 45 100 0
-101 -30 0
-101 -28 0
30 28 101 0
-87 -101 -102 0
87 101 -102 0
-87 101 102 0
87 -101 102 0
-103 -13 0
-103 23 0
13 -23 103 0
-104 -36 0
-104 -103 0
36 103 104 0
-102 104 -105 0
102 -104 -105 0
-102 -104 105 0
102 104 105 0
106 -19 0
106 -52 0
19 52 -106 0
107 -4 0
107 -106 0
4 106 -107 0
-108 107 0
-108 86 0
-107 -86 108 0
-109 105 0
-109 -108 0
-105 108 109 0
100 -109 -110 0
-100 109 -110 0
100 109 110 0
-100 -109 110 0
111 99 0
111 -110 0
-99 110 -111 0
112 -81 0
112 111 0
81 -111 -112 0
79 112 -113 0
-79 -112 -113 0
79 -112 113 0
-79 112 113 0
11 -77 0
-50 7 -23 32 0
-15 104 22 -108 3 0
-106 -60 0
13 -55 -35 -98 0
30 59 98 10 0
63 104 0
-33 81 -43 3 -54 0
47 -26 51 53 0
3 91 -32 0
-34 -88 40 -33 -38 -57 0
-21 -49 -6 -78 -66 0
53 69 -46 0
99 26 0
100 24 111 -97 0
30 -26 0
96 -40 106 -1 0
33 -111 61 29 -15 0
90 34 -103 22 0
66 6 -98 -77 -93 0
62 -32 -110 -105 0
-77 81 75 71 79 0
104 -22 71 -32 0
-13 -24 18 43 -37 0
-45 55 -39 104 0
-73 65 0
3 -59 -58 25 88 -44 0
-56 96 83 88 68 0
-112 -74 0
60 71 0
-17 6 -99 -45 0
-6 -103 0
-6 -105 0
-66 -46 47 -89 0
-91 76 -21 25 -52 -44 0
99 87 -27 62 0
88 -2 46 -75 85 -60 0
109 5 -73 -85 99 52 0
110 -65 0
-40 -17 109 0
66 74 87 -22 94 0
-103 -72 74 25 -41 -51 0
78 8 55 -77 -30 -35 0
-18 87 81 -62 106 -21 0
49 -93 -47 109 0
22 34 65 83 0
53 62 0
-81 84 -62 0
113 0
